outputs/case_306.model.txt
personal_data_handled_according_to_law = True
internal_control_system_established = True
fund_source_assessed_and_appropriate = True
internal_handling_system_established = True
internal_handling_system_executed = True
underwriting_training_completed = True
underwriting_staff_qualified = True
underwriting_policy_established_and_executed = True
prohibited_underwriting_practices = True
internal_control_system_executed = True
financial_underwriting_and_reporting_done = True
underwriting_documents_reviewed = True
internal_handling_established = True
underwriting_training_compliance = True
financial_underwriting_compliance = True
internal_control_penalty = False
internal_handling_ok = True
underwriting_penalty = False
prohibited_practices_occurred = False
underwriting_policy_compliance = True
fund_source_assessment_compliance = True
internal_control_executed = True
personal_data_handling_compliance = True
internal_handling_penalty = False
penalty = False
underwriting_qualification_compliance = True
internal_handling_executed = True
internal_control_established = True
internal_control_ok = True
underwriting_document_compliance = True